
c--------------------------------------------------------------
c	Ferhat Erata
c	CPSC 454/554
c	Tue Nov 26 2019	22:50:32
c--------------------------------------------------------------
c 60 160
c 39 40 1 
c -39 -40 1 
c 39 -40 -1 
c -39 40 -1 
c 1 41 2 
c -1 -41 2 
c 1 -41 -2 
c -1 41 -2 
c 2 42 3 
c -2 -42 3 
c 2 -42 -3 
c -2 42 -3 
c 3 43 4 
c -3 -43 4 
c 3 -43 -4 
c -3 43 -4 
c 4 44 5 
c -4 -44 5 
c 4 -44 -5 
c -4 44 -5 
c 5 45 6 
c -5 -45 6 
c 5 -45 -6 
c -5 45 -6 
c 6 46 7 
c -6 -46 7 
c 6 -46 -7 
c -6 46 -7 
c 7 47 8 
c -7 -47 8 
c 7 -47 -8 
c -7 47 -8 
c 8 48 9 
c -8 -48 9 
c 8 -48 -9 
c -8 48 -9 
c 9 49 10 
c -9 -49 10 
c 9 -49 -10 
c -9 49 -10 
c 10 50 11 
c -10 -50 11 
c 10 -50 -11 
c -10 50 -11 
c 11 51 12 
c -11 -51 12 
c 11 -51 -12 
c -11 51 -12 
c 12 52 13 
c -12 -52 13 
c 12 -52 -13 
c -12 52 -13 
c 13 53 14 
c -13 -53 14 
c 13 -53 -14 
c -13 53 -14 
c 14 54 15 
c -14 -54 15 
c 14 -54 -15 
c -14 54 -15 
c 15 55 16 
c -15 -55 16 
c 15 -55 -16 
c -15 55 -16 
c 16 56 17 
c -16 -56 17 
c 16 -56 -17 
c -16 56 -17 
c 17 57 18 
c -17 -57 18 
c 17 -57 -18 
c -17 57 -18 
c 18 58 19 
c -18 -58 19 
c 18 -58 -19 
c -18 58 -19 
c 19 59 60 
c -19 -59 60 
c 19 -59 -60 
c -19 59 -60 
c 20 59 60 
c -20 -59 60 
c 20 -59 -60 
c -20 59 -60 
c 21 58 20 
c -21 -58 20 
c 21 -58 -20 
c -21 58 -20 
c 22 57 21 
c -22 -57 21 
c 22 -57 -21 
c -22 57 -21 
c 23 56 22 
c -23 -56 22 
c 23 -56 -22 
c -23 56 -22 
c 24 55 23 
c -24 -55 23 
c 24 -55 -23 
c -24 55 -23 
c 25 54 24 
c -25 -54 24 
c 25 -54 -24 
c -25 54 -24 
c 26 53 25 
c -26 -53 25 
c 26 -53 -25 
c -26 53 -25 
c 27 52 26 
c -27 -52 26 
c 27 -52 -26 
c -27 52 -26 
c 28 51 27 
c -28 -51 27 
c 28 -51 -27 
c -28 51 -27 
c 29 50 28 
c -29 -50 28 
c 29 -50 -28 
c -29 50 -28 
c 30 49 29 
c -30 -49 29 
c 30 -49 -29 
c -30 49 -29 
c 31 48 30 
c -31 -48 30 
c 31 -48 -30 
c -31 48 -30 
c 32 47 31 
c -32 -47 31 
c 32 -47 -31 
c -32 47 -31 
c 33 46 32 
c -33 -46 32 
c 33 -46 -32 
c -33 46 -32 
c 34 45 33 
c -34 -45 33 
c 34 -45 -33 
c -34 45 -33 
c 35 44 34 
c -35 -44 34 
c 35 -44 -34 
c -35 44 -34 
c 36 43 35 
c -36 -43 35 
c 36 -43 -35 
c -36 43 -35 
c 37 42 36 
c -37 -42 36 
c 37 -42 -36 
c -37 42 -36 
c 38 41 37 
c -38 -41 37 
c 38 -41 -37 
c -38 41 -37 
c 39 40 -38 
c -39 -40 -38 
c 39 -40 38 
c -39 40 38 
s UNSATISFIABLE
c--------------------------------------------------------------
c statistics of ../../bench3/dubois20.cnf:
c [ mem_used: 1568, conflicts: 0, max_lemmas: 2000 ]
c--------------------------------------------------------------
c	Normal termination.
